
;this file is automatically generated: Tue Mar 02 16:20:05 CST 2021

;declarations generated

(declare-fun oclExcludes ( Int Int) Bool)
(declare-fun Cardinality ( Int) Int)
(declare-fun obj_3b981f77_a412_4a52_b118_dba67020b96f ( Int) Int)
(declare-fun type_f975abc2_e359_4f77_8abd_f02bed288301_Class0 ( Int) Bool)
(declare-fun type_f975abc2_e359_4f77_8abd_f02bed288301_Class2 ( Int) Bool)
(declare-fun type_f975abc2_e359_4f77_8abd_f02bed288301_Class1 ( Int) Bool)
(declare-fun type_f975abc2_e359_4f77_8abd_f02bed288301_Class4 ( Int) Bool)
(declare-fun type_f975abc2_e359_4f77_8abd_f02bed288301_Class3 ( Int) Bool)
(declare-fun type_f975abc2_e359_4f77_8abd_f02bed288301_Class6 ( Int) Bool)
(declare-fun type_f975abc2_e359_4f77_8abd_f02bed288301_Class5 ( Int) Bool)
(declare-fun type_f975abc2_e359_4f77_8abd_f02bed288301_Class8 ( Int) Bool)
(declare-fun type_f975abc2_e359_4f77_8abd_f02bed288301_Class7 ( Int) Bool)
(declare-fun type_f975abc2_e359_4f77_8abd_f02bed288301_Class9 ( Int) Bool)
(declare-fun type_f975abc2_e359_4f77_8abd_f02bed288301_Class20 ( Int) Bool)
(declare-fun type_f975abc2_e359_4f77_8abd_f02bed288301_Class21 ( Int) Bool)
(declare-fun type_f975abc2_e359_4f77_8abd_f02bed288301_Class22 ( Int) Bool)
(declare-fun type_f975abc2_e359_4f77_8abd_f02bed288301_Class23 ( Int) Bool)
(declare-fun type_f975abc2_e359_4f77_8abd_f02bed288301_Class24 ( Int) Bool)
(declare-fun type_f975abc2_e359_4f77_8abd_f02bed288301_Class25 ( Int) Bool)
(declare-fun type_f975abc2_e359_4f77_8abd_f02bed288301_Class26 ( Int) Bool)
(declare-fun type_f975abc2_e359_4f77_8abd_f02bed288301_Class27 ( Int) Bool)
(declare-fun type_f975abc2_e359_4f77_8abd_f02bed288301_Class28 ( Int) Bool)
(declare-fun type_f975abc2_e359_4f77_8abd_f02bed288301_Class29 ( Int) Bool)
(declare-fun oclSelect ( Int Bool) Int)
(declare-fun type_f975abc2_e359_4f77_8abd_f02bed288301_Class10 ( Int) Bool)
(declare-fun type_f975abc2_e359_4f77_8abd_f02bed288301_Class11 ( Int) Bool)
(declare-fun type_f975abc2_e359_4f77_8abd_f02bed288301_Class12 ( Int) Bool)
(declare-fun type_f975abc2_e359_4f77_8abd_f02bed288301_Class13 ( Int) Bool)
(declare-fun type_f975abc2_e359_4f77_8abd_f02bed288301_Class14 ( Int) Bool)
(declare-fun type_f975abc2_e359_4f77_8abd_f02bed288301_Class15 ( Int) Bool)
(declare-fun type_f975abc2_e359_4f77_8abd_f02bed288301_Class16 ( Int) Bool)
(declare-fun type_f975abc2_e359_4f77_8abd_f02bed288301_Class17 ( Int) Bool)
(declare-fun type_f975abc2_e359_4f77_8abd_f02bed288301_Class18 ( Int) Bool)
(declare-fun type_f975abc2_e359_4f77_8abd_f02bed288301_Class19 ( Int) Bool)
(declare-fun Enum0 ( Int) Int)
(declare-fun Enum1 ( Int) Int)
(declare-fun Enum2 ( Int) Int)
(declare-fun class5_Class5BoolAttr0 ( Int) Bool)
(declare-fun container_ ( Int) Int)
(declare-fun oclIncludes ( Int Int) Bool)
(declare-fun class5_Class5IntAttr2 ( Int) Int)
(declare-fun ObjAt ( Int Int) Int)

;formula(s) generated
(assert (! (or (forall ((v Int)) (=> ( type_f975abc2_e359_4f77_8abd_f02bed288301_Class5 v )  (not ( class5_Class5BoolAttr0 ( obj_3b981f77_a412_4a52_b118_dba67020b96f v )  )  ))) (forall ((v Int)) (=> ( type_f975abc2_e359_4f77_8abd_f02bed288301_Class5 v )  (= ( class5_Class5IntAttr2 ( obj_3b981f77_a412_4a52_b118_dba67020b96f v )  )  2)))):named l0))
(assert (! (exists ((o Int)) (and ( type_f975abc2_e359_4f77_8abd_f02bed288301_Class0 ( obj_3b981f77_a412_4a52_b118_dba67020b96f o )  )  ( type_f975abc2_e359_4f77_8abd_f02bed288301_Class25 ( obj_3b981f77_a412_4a52_b118_dba67020b96f o )  ) )):named c0))
(assert (! (exists ((o Int)) ( type_f975abc2_e359_4f77_8abd_f02bed288301_Class1 ( obj_3b981f77_a412_4a52_b118_dba67020b96f o )  ) ):named c1))
(assert (! (exists ((o Int)) ( type_f975abc2_e359_4f77_8abd_f02bed288301_Class10 ( obj_3b981f77_a412_4a52_b118_dba67020b96f o )  ) ):named c2))
(assert (! (exists ((o Int)) ( type_f975abc2_e359_4f77_8abd_f02bed288301_Class11 ( obj_3b981f77_a412_4a52_b118_dba67020b96f o )  ) ):named c3))
(assert (! (exists ((o Int)) ( type_f975abc2_e359_4f77_8abd_f02bed288301_Class12 ( obj_3b981f77_a412_4a52_b118_dba67020b96f o )  ) ):named c4))
(assert (! (exists ((o Int)) (and (and ( type_f975abc2_e359_4f77_8abd_f02bed288301_Class13 ( obj_3b981f77_a412_4a52_b118_dba67020b96f o )  )  ( type_f975abc2_e359_4f77_8abd_f02bed288301_Class25 ( obj_3b981f77_a412_4a52_b118_dba67020b96f o )  ) ) ( type_f975abc2_e359_4f77_8abd_f02bed288301_Class0 ( obj_3b981f77_a412_4a52_b118_dba67020b96f o )  ) )):named c5))
(assert (! (exists ((o Int)) (and (and ( type_f975abc2_e359_4f77_8abd_f02bed288301_Class14 ( obj_3b981f77_a412_4a52_b118_dba67020b96f o )  )  ( type_f975abc2_e359_4f77_8abd_f02bed288301_Class25 ( obj_3b981f77_a412_4a52_b118_dba67020b96f o )  ) ) ( type_f975abc2_e359_4f77_8abd_f02bed288301_Class17 ( obj_3b981f77_a412_4a52_b118_dba67020b96f o )  ) )):named c6))
(assert (! (exists ((o Int)) ( type_f975abc2_e359_4f77_8abd_f02bed288301_Class15 ( obj_3b981f77_a412_4a52_b118_dba67020b96f o )  ) ):named c7))
(assert (! (exists ((o Int)) ( type_f975abc2_e359_4f77_8abd_f02bed288301_Class16 ( obj_3b981f77_a412_4a52_b118_dba67020b96f o )  ) ):named c8))
(assert (! (exists ((o Int)) (and ( type_f975abc2_e359_4f77_8abd_f02bed288301_Class17 ( obj_3b981f77_a412_4a52_b118_dba67020b96f o )  )  ( type_f975abc2_e359_4f77_8abd_f02bed288301_Class25 ( obj_3b981f77_a412_4a52_b118_dba67020b96f o )  ) )):named c9))
(assert (! (exists ((o Int)) (and (and ( type_f975abc2_e359_4f77_8abd_f02bed288301_Class18 ( obj_3b981f77_a412_4a52_b118_dba67020b96f o )  )  ( type_f975abc2_e359_4f77_8abd_f02bed288301_Class25 ( obj_3b981f77_a412_4a52_b118_dba67020b96f o )  ) ) ( type_f975abc2_e359_4f77_8abd_f02bed288301_Class17 ( obj_3b981f77_a412_4a52_b118_dba67020b96f o )  ) )):named c10))
(assert (! (exists ((o Int)) ( type_f975abc2_e359_4f77_8abd_f02bed288301_Class19 ( obj_3b981f77_a412_4a52_b118_dba67020b96f o )  ) ):named c11))
(assert (! (exists ((o Int)) ( type_f975abc2_e359_4f77_8abd_f02bed288301_Class2 ( obj_3b981f77_a412_4a52_b118_dba67020b96f o )  ) ):named c12))
(assert (! (exists ((o Int)) ( type_f975abc2_e359_4f77_8abd_f02bed288301_Class20 ( obj_3b981f77_a412_4a52_b118_dba67020b96f o )  ) ):named c13))
(assert (! (exists ((o Int)) (and (and (and ( type_f975abc2_e359_4f77_8abd_f02bed288301_Class21 ( obj_3b981f77_a412_4a52_b118_dba67020b96f o )  )  ( type_f975abc2_e359_4f77_8abd_f02bed288301_Class25 ( obj_3b981f77_a412_4a52_b118_dba67020b96f o )  ) ) ( type_f975abc2_e359_4f77_8abd_f02bed288301_Class13 ( obj_3b981f77_a412_4a52_b118_dba67020b96f o )  ) ) ( type_f975abc2_e359_4f77_8abd_f02bed288301_Class0 ( obj_3b981f77_a412_4a52_b118_dba67020b96f o )  ) )):named c14))
(assert (! (exists ((o Int)) ( type_f975abc2_e359_4f77_8abd_f02bed288301_Class22 ( obj_3b981f77_a412_4a52_b118_dba67020b96f o )  ) ):named c15))
(assert (! (exists ((o Int)) (and (and (and (and ( type_f975abc2_e359_4f77_8abd_f02bed288301_Class23 ( obj_3b981f77_a412_4a52_b118_dba67020b96f o )  )  ( type_f975abc2_e359_4f77_8abd_f02bed288301_Class25 ( obj_3b981f77_a412_4a52_b118_dba67020b96f o )  ) ) ( type_f975abc2_e359_4f77_8abd_f02bed288301_Class13 ( obj_3b981f77_a412_4a52_b118_dba67020b96f o )  ) ) ( type_f975abc2_e359_4f77_8abd_f02bed288301_Class0 ( obj_3b981f77_a412_4a52_b118_dba67020b96f o )  ) ) ( type_f975abc2_e359_4f77_8abd_f02bed288301_Class21 ( obj_3b981f77_a412_4a52_b118_dba67020b96f o )  ) )):named c16))
(assert (! (exists ((o Int)) (and (and ( type_f975abc2_e359_4f77_8abd_f02bed288301_Class24 ( obj_3b981f77_a412_4a52_b118_dba67020b96f o )  )  ( type_f975abc2_e359_4f77_8abd_f02bed288301_Class25 ( obj_3b981f77_a412_4a52_b118_dba67020b96f o )  ) ) ( type_f975abc2_e359_4f77_8abd_f02bed288301_Class0 ( obj_3b981f77_a412_4a52_b118_dba67020b96f o )  ) )):named c17))
(assert (! (exists ((o Int)) ( type_f975abc2_e359_4f77_8abd_f02bed288301_Class25 ( obj_3b981f77_a412_4a52_b118_dba67020b96f o )  ) ):named c18))
(assert (! (exists ((o Int)) ( type_f975abc2_e359_4f77_8abd_f02bed288301_Class26 ( obj_3b981f77_a412_4a52_b118_dba67020b96f o )  ) ):named c19))
(assert (! (exists ((o Int)) (and (and ( type_f975abc2_e359_4f77_8abd_f02bed288301_Class27 ( obj_3b981f77_a412_4a52_b118_dba67020b96f o )  )  ( type_f975abc2_e359_4f77_8abd_f02bed288301_Class25 ( obj_3b981f77_a412_4a52_b118_dba67020b96f o )  ) ) ( type_f975abc2_e359_4f77_8abd_f02bed288301_Class17 ( obj_3b981f77_a412_4a52_b118_dba67020b96f o )  ) )):named c20))
(assert (! (exists ((o Int)) (and (and (and (and ( type_f975abc2_e359_4f77_8abd_f02bed288301_Class28 ( obj_3b981f77_a412_4a52_b118_dba67020b96f o )  )  ( type_f975abc2_e359_4f77_8abd_f02bed288301_Class25 ( obj_3b981f77_a412_4a52_b118_dba67020b96f o )  ) ) ( type_f975abc2_e359_4f77_8abd_f02bed288301_Class13 ( obj_3b981f77_a412_4a52_b118_dba67020b96f o )  ) ) ( type_f975abc2_e359_4f77_8abd_f02bed288301_Class0 ( obj_3b981f77_a412_4a52_b118_dba67020b96f o )  ) ) ( type_f975abc2_e359_4f77_8abd_f02bed288301_Class21 ( obj_3b981f77_a412_4a52_b118_dba67020b96f o )  ) )):named c21))
(assert (! (exists ((o Int)) ( type_f975abc2_e359_4f77_8abd_f02bed288301_Class29 ( obj_3b981f77_a412_4a52_b118_dba67020b96f o )  ) ):named c22))
(assert (! (exists ((o Int)) ( type_f975abc2_e359_4f77_8abd_f02bed288301_Class3 ( obj_3b981f77_a412_4a52_b118_dba67020b96f o )  ) ):named c23))
(assert (! (exists ((o Int)) (and (and (and (and ( type_f975abc2_e359_4f77_8abd_f02bed288301_Class4 ( obj_3b981f77_a412_4a52_b118_dba67020b96f o )  )  ( type_f975abc2_e359_4f77_8abd_f02bed288301_Class25 ( obj_3b981f77_a412_4a52_b118_dba67020b96f o )  ) ) ( type_f975abc2_e359_4f77_8abd_f02bed288301_Class24 ( obj_3b981f77_a412_4a52_b118_dba67020b96f o )  ) ) ( type_f975abc2_e359_4f77_8abd_f02bed288301_Class6 ( obj_3b981f77_a412_4a52_b118_dba67020b96f o )  ) ) ( type_f975abc2_e359_4f77_8abd_f02bed288301_Class0 ( obj_3b981f77_a412_4a52_b118_dba67020b96f o )  ) )):named c24))
(assert (! (exists ((o Int)) ( type_f975abc2_e359_4f77_8abd_f02bed288301_Class5 ( obj_3b981f77_a412_4a52_b118_dba67020b96f o )  ) ):named c25))
(assert (! (exists ((o Int)) (and (and (and ( type_f975abc2_e359_4f77_8abd_f02bed288301_Class6 ( obj_3b981f77_a412_4a52_b118_dba67020b96f o )  )  ( type_f975abc2_e359_4f77_8abd_f02bed288301_Class25 ( obj_3b981f77_a412_4a52_b118_dba67020b96f o )  ) ) ( type_f975abc2_e359_4f77_8abd_f02bed288301_Class24 ( obj_3b981f77_a412_4a52_b118_dba67020b96f o )  ) ) ( type_f975abc2_e359_4f77_8abd_f02bed288301_Class0 ( obj_3b981f77_a412_4a52_b118_dba67020b96f o )  ) )):named c26))
(assert (! (exists ((o Int)) ( type_f975abc2_e359_4f77_8abd_f02bed288301_Class7 ( obj_3b981f77_a412_4a52_b118_dba67020b96f o )  ) ):named c27))
(assert (! (exists ((o Int)) ( type_f975abc2_e359_4f77_8abd_f02bed288301_Class8 ( obj_3b981f77_a412_4a52_b118_dba67020b96f o )  ) ):named c28))
(assert (! (exists ((o Int)) ( type_f975abc2_e359_4f77_8abd_f02bed288301_Class9 ( obj_3b981f77_a412_4a52_b118_dba67020b96f o )  ) ):named c29))

 ;end of formula 